Problem:    
Rows:       192
Columns:    65 (48 integer, 48 binary)
Non-zeros:  584
Status:     INTEGER OPTIMAL
Objective:  value = 36.901957 (MINimum)

   No.   Row name        Activity     Lower bound   Upper bound
------ ------------    ------------- ------------- -------------
     1 r.5                    1036.9             0               
     2 r.6                  -987.551       -994.49               
     3 r.7                    36.902             0               
     4 r.8                   12.4489      -986.981               
     5 r.9                    36.902             0               
     6 r.10                 -994.528      -996.307               
     7 r.11                   1036.9             0               
     8 r.12                 -987.551       -989.57               
     9 r.13                   1036.9             0               
    10 r.14                 -995.187      -996.966               
    11 r.15                   36.902             0               
    12 r.16                  12.4489       -991.62               
    13 r.17                   1036.9             0               
    14 r.18                 -998.221      -999.528               
    15 r.19                   36.902             0               
    16 r.20                  1.77912       -998.56               
    17 r.21                   1036.9             0               
    18 r.22                 -993.061      -997.873               
    19 r.23                   36.902             0               
    20 r.24                  6.93939      -993.712               
    21 r.25                   36.902             0               
    22 r.26                  1.30675      -998.401               
    23 r.27                   1036.9             0               
    24 r.28                 -998.693      -998.693               
    25 r.29                   36.902             0               
    26 r.30                   36.902      -992.348               
    27 r.31                   1036.9             0               
    28 r.32                 -963.098      -987.666               
    29 r.33                   1036.9             0               
    30 r.34                 -963.098      -975.547               
    31 r.35                   36.902             0               
    32 r.36                   36.902      -943.476               
    33 r.37                        1             1             = 
    34 r.38                        1             1             = 
    35 r.39                        1             1             = 
    36 r.40                        1             1             = 
    37 r.41                        1             1             = 
    38 r.42                        1             1             = 
    39 r.43                        1             1             = 
    40 r.44                        1             1             = 
    41 r.45                     1001             2               
    42 r.46                    -1001         -1001               
    43 r.47                  993.023      -996.307               
    44 r.48                     1001             2               
    45 r.49                    -1001         -1001               
    46 r.50                     2000       -989.57               
    47 r.51                        2             2               
    48 r.52                       -2         -1001               
    49 r.53                 -7.63613      -996.966               
    50 r.54                     1000             2               
    51 r.55                    -1000         -1001               
    52 r.56                     2000       -991.62               
    53 r.57                  -989.33       -994.49               
    54 r.58                  10.6698      -986.981               
    55 r.59                  -989.33       -994.49               
    56 r.60                  10.6698      -986.981               
    57 r.61                  -994.49       -994.49               
    58 r.62                   5.5095      -986.981               
    59 r.63                  -994.49       -994.49               
    60 r.64                   5.5095      -986.981               
    61 r.65                  24.4531      -992.348               
    62 r.66                 -975.547      -987.666               
    63 r.67                  24.4531      -992.348               
    64 r.68                 -975.547      -987.666               
    65 r.69                 -975.547      -975.547               
    66 r.70                  24.4531      -943.476               
    67 r.71                 -975.547      -975.547               
    68 r.72                  24.4531      -943.476               
    69 r.73                     1001             2               
    70 r.74                    -1001         -1001               
    71 r.75                  3006.98        5.5095               
    72 r.76                     1001             2               
    73 r.77                    -1001         -1001               
    74 r.78                     2000       13.0193               
    75 r.79                     1001             2               
    76 r.80                    -1001         -1001               
    77 r.81                  2999.34      -996.966               
    78 r.82                     1001             2               
    79 r.83                    -1001         -1001               
    80 r.84                     2000       -991.62               
    81 r.85                 -996.307      -996.307               
    82 r.86                  -989.33       -989.57               
    83 r.87                 -996.307      -996.307               
    84 r.88                  -989.33       -989.57               
    85 r.89                     1001             2               
    86 r.90                    -1001         -1001               
    87 r.91                  3001.47      -997.873               
    88 r.92                     1001             2               
    89 r.93                    -1001         -1001               
    90 r.94                  1994.49      -993.712               
    91 r.95                 -995.835      -996.307               
    92 r.96                 -988.858       -989.57               
    93 r.97                 -995.835      -996.307               
    94 r.98                 -988.858       -989.57               
    95 r.99                  1031.43      -992.348               
    96 r.100                 31.4298      -987.666               
    97 r.101                 24.4531      -992.348               
    98 r.102                -975.547      -987.666               
    99 r.103                 31.4298      -975.547               
   100 r.104                 1031.43      -943.476               
   101 r.105                -975.547      -975.547               
   102 r.106                 24.4531      -943.476               
   103 r.107                       2             2               
   104 r.108                      -2         -1001               
   105 r.109                 7.63613        5.5095               
   106 r.110                    1000             2               
   107 r.111                   -1000         -1001               
   108 r.112                    2000       13.0193               
   109 r.113                    1001             2               
   110 r.114                   -1001         -1001               
   111 r.115                 1000.66       3.69301               
   112 r.116                    1001             2               
   113 r.117                   -1001         -1001               
   114 r.118                    2000       10.4298               
   115 r.119                       2             2               
   116 r.120                      -2         -1001               
   117 r.121                -3.03364      -999.528               
   118 r.122                    1000             2               
   119 r.123                   -1000         -1001               
   120 r.124                 1989.33       -998.56               
   121 r.125                       2             2               
   122 r.126                      -2         -1001               
   123 r.127                -997.873      -997.873               
   124 r.128                    1000             2               
   125 r.129                   -1000         -1001               
   126 r.130                 1994.49      -993.712               
   127 r.131                -996.494      -996.966               
   128 r.132                 11.1421       -991.62               
   129 r.133                -996.494      -996.966               
   130 r.134                 11.1421       -991.62               
   131 r.135                 32.0892      -992.348               
   132 r.136                -967.911      -987.666               
   133 r.137                 24.4531      -992.348               
   134 r.138                -975.547      -987.666               
   135 r.139                -967.911      -975.547               
   136 r.140                 32.0892      -943.476               
   137 r.141                -975.547      -975.547               
   138 r.142                 24.4531      -943.476               
   139 r.143                       2             2               
   140 r.144                      -2         -1001               
   141 r.145                 3.03364       3.03364               
   142 r.146                    1000             2               
   143 r.147                   -1000         -1001               
   144 r.148                 2010.67       8.38015               
   145 r.149                       2             2               
   146 r.150                      -2         -1001               
   147 r.151                 -994.84      -997.873               
   148 r.152                    1000             2               
   149 r.153                   -1000         -1001               
   150 r.154                 2005.16      -993.712               
   151 r.155                -999.528      -999.528               
   152 r.156                0.472367       -998.56               
   153 r.157                -999.528      -999.528               
   154 r.158                0.472367       -998.56               
   155 r.159                    1001             2               
   156 r.160                   -1001         -1001               
   157 r.161                 998.533       3.69301               
   158 r.162                    1001             2               
   159 r.163                   -1001         -1001               
   160 r.164                 2005.51       10.4298               
   161 r.165                       2             2               
   162 r.166                      -2         -1001               
   163 r.167                 997.873       3.03364               
   164 r.168                    1000             2               
   165 r.169                   -1000         -1001               
   166 r.170                 2005.51       8.38015               
   167 r.171                       2             2               
   168 r.172                      -2         -1001               
   169 r.173                  994.84      0.472367               
   170 r.174                    1000             2               
   171 r.175                   -1000         -1001               
   172 r.176                 1994.84       1.44012               
   173 r.177                -994.367      -997.873               
   174 r.178                 5.63264      -993.712               
   175 r.179                -994.367      -997.873               
   176 r.180                 5.63264      -993.712               
   177 r.181                 29.9626      -992.348               
   178 r.182                -970.037      -987.666               
   179 r.183                 29.9626      -992.348               
   180 r.184                -970.037      -987.666               
   181 r.185                    1001             2               
   182 r.186                   -1001         -1001               
   183 r.187                    2000      -975.547               
   184 r.188                    1001             2               
   185 r.189                   -1001         -1001               
   186 r.190                    2000      -943.476               
   187 r.191                    1001             2               
   188 r.192                   -1001         -1001               
   189 r.193                    2000        7.6518               
   190 r.194                    1001             2               
   191 r.195                   -1001         -1001               
   192 r.196                    2000       12.3343               

   No. Column name       Activity     Lower bound   Upper bound
------ ------------    ------------- ------------- -------------
     1 tt                     36.902             0               
     2 s_1_1        *              1             0             1 
     3 t_1_1                 24.4531             0               
     4 s_1_7        *              0             0             1 
     5 s_1_8        *              1             0             1 
     6 s_2_1        *              0             0             1 
     7 t_2_1                 24.4531             0               
     8 s_2_7        *              1             0             1 
     9 s_2_8        *              0             0             1 
    10 s_1_2        *              0             0             1 
    11 t_1_2                 1031.43             0               
    12 s_2_2        *              1             0             1 
    13 t_2_2                 24.4531             0               
    14 s_1_3        *              1             0             1 
    15 t_1_3                 32.0892             0               
    16 s_2_3        *              0             0             1 
    17 t_2_3                 24.4531             0               
    18 s_1_4        *              1             0             1 
    19 t_1_4                 35.1228             0               
    20 s_2_4        *              0             0             1 
    21 t_2_4                 35.1228             0               
    22 s_1_5        *              1             0             1 
    23 t_1_5                 29.9626             0               
    24 s_2_5        *              0             0             1 
    25 t_2_5                 29.9626             0               
    26 s_1_6        *              0             0             1 
    27 t_1_6                 35.5952             0               
    28 s_2_6        *              1             0             1 
    29 t_2_6                 35.5952             0               
    30 t_1_7                       0             0               
    31 t_2_7                       0             0               
    32 t_1_8                       0             0               
    33 t_2_8                       0             0               
    34 r_1_1_2      *              1             0             1 
    35 u_1_1_2      *              0             0             1 
    36 r_2_1_2      *              1             0             1 
    37 u_2_1_2      *              0             0             1 
    38 r_1_1_3      *              0             0             1 
    39 u_1_1_3      *              0             0             1 
    40 r_2_1_3      *              1             0             1 
    41 u_2_1_3      *              0             0             1 
    42 r_1_2_3      *              1             0             1 
    43 u_1_2_3      *              0             0             1 
    44 r_2_2_3      *              1             0             1 
    45 u_2_2_3      *              0             0             1 
    46 r_1_2_5      *              1             0             1 
    47 u_1_2_5      *              0             0             1 
    48 r_2_2_5      *              1             0             1 
    49 u_2_2_5      *              0             0             1 
    50 r_1_3_4      *              0             0             1 
    51 u_1_3_4      *              0             0             1 
    52 r_2_3_4      *              1             0             1 
    53 u_2_3_4      *              0             0             1 
    54 r_1_3_5      *              0             0             1 
    55 u_1_3_5      *              1             0             1 
    56 r_2_3_5      *              1             0             1 
    57 u_2_3_5      *              0             0             1 
    58 r_1_4_5      *              0             0             1 
    59 u_1_4_5      *              1             0             1 
    60 r_2_4_5      *              1             0             1 
    61 u_2_4_5      *              0             0             1 
    62 r_1_7_8      *              1             0             1 
    63 u_1_7_8      *              0             0             1 
    64 r_2_7_8      *              1             0             1 
    65 u_2_7_8      *              0             0             1 

Integer feasibility conditions:

KKT.PE: max.abs.err = 0.00e+00 on row 0
        max.rel.err = 0.00e+00 on row 0
        High quality

KKT.PB: max.abs.err = 1.14e-13 on row 81
        max.rel.err = 4.40e-16 on row 141
        High quality

End of output
